NAME: cities_5_12
TYPE: TSP
COMMENT: Generated from CSV
DIMENSION: 5
EDGE_WEIGHT_TYPE: EUC_2D
NODE_COORD_SECTION
1 73.80191449877596 46.36514398198543
2 72.38697433491375 5.04007962974079
3 18.780655030826697 47.95822643025966
4 64.73348270142634 80.17237635445845
5 7.146093181921542 36.05107346324549
EOF
